% seed = 0

mint = 34;
% maxt = 189;

nActs = 92;
dur = [0,1,4,1,5,2,2,1,2,2,3,1,3,1,1,1,1,2,1,2,3,1,2,1,1,2,1,2,2,1,5,1,2,3,4,2,1,3,3,1,3,2,2,3,1,1,5,3,3,3,3,3,3,2,1,1,2,3,2,2,2,2,2,2,2,4,1,1,2,2,3,3,2,1,1,2,1,2,4,1,3,1,3,2,2,2,2,3,1,2,3,0];

nSkills = 15;
sreq = [| 0,0,0,0,0,0,0,0,0,0,0,0,0,0,0,
	| 0,0,1,0,0,0,0,0,1,0,0,0,1,0,0,
	| 0,0,0,0,0,1,1,0,0,0,1,0,0,0,0,
	| 0,0,0,1,0,0,1,0,1,0,1,2,0,0,0,
	| 0,0,1,0,0,0,0,0,0,0,0,1,0,0,0,
	| 0,1,0,0,1,0,0,0,1,1,0,1,0,0,0,
	| 0,0,0,0,0,1,0,0,1,0,2,0,0,0,0,
	| 0,0,0,0,1,0,0,0,0,1,1,1,1,1,0,
	| 0,0,0,0,2,0,0,1,0,0,1,0,0,0,0,
	| 0,0,0,0,1,1,0,1,0,0,0,1,0,0,0,
	| 0,0,0,0,0,0,0,0,1,0,0,0,0,0,0,
	| 0,0,0,0,1,0,0,0,0,1,0,0,0,0,0,
	| 0,0,0,1,0,0,1,0,0,0,0,0,0,0,0,
	| 0,0,1,0,0,1,1,0,0,0,1,0,1,0,0,
	| 0,0,0,1,0,1,1,0,0,1,0,1,0,1,0,
	| 0,0,0,0,1,0,0,0,1,1,0,0,0,0,0,
	| 0,0,0,0,0,2,0,0,0,0,0,0,1,0,0,
	| 0,0,0,0,1,0,1,0,1,0,1,0,0,0,0,
	| 0,0,0,0,0,1,0,0,0,0,0,0,0,0,1,
	| 0,0,1,1,1,1,0,0,0,0,0,0,0,0,0,
	| 0,0,1,0,0,1,0,0,0,0,0,0,0,1,0,
	| 0,0,0,0,0,0,0,0,0,0,0,0,0,1,0,
	| 0,0,0,1,0,0,0,0,1,1,0,2,0,1,0,
	| 0,0,0,0,0,1,0,0,0,0,0,0,0,0,0,
	| 0,0,2,0,0,0,0,1,2,1,0,0,0,0,0,
	| 0,0,1,0,0,1,0,0,1,0,1,2,0,0,0,
	| 0,0,1,1,1,0,0,0,0,0,0,1,0,0,0,
	| 0,0,1,1,1,0,0,0,1,0,0,1,0,0,0,
	| 0,0,0,0,1,0,1,0,0,0,0,1,0,0,0,
	| 0,0,1,0,0,0,0,0,1,0,0,1,0,0,0,
	| 0,0,0,0,1,0,0,0,1,0,1,0,0,0,0,
	| 0,0,2,0,0,1,0,0,0,1,0,2,0,0,0,
	| 0,0,0,0,0,1,0,0,1,1,0,2,0,0,0,
	| 0,0,1,0,0,1,0,0,1,1,1,1,0,0,0,
	| 0,0,0,1,0,2,0,0,0,0,0,3,0,0,0,
	| 0,0,0,0,0,0,0,0,0,0,1,0,0,0,0,
	| 0,0,0,0,0,0,0,1,0,0,1,0,0,0,0,
	| 0,0,1,1,0,0,0,0,0,0,1,0,0,0,0,
	| 0,0,1,0,0,1,0,0,0,0,0,0,1,0,0,
	| 0,0,0,0,0,0,0,0,0,1,0,1,1,0,0,
	| 0,0,2,0,0,0,1,0,1,0,0,2,0,0,0,
	| 0,0,0,0,2,0,0,0,0,1,0,0,0,0,0,
	| 0,0,0,0,1,0,0,0,0,1,0,0,1,0,0,
	| 0,0,0,1,1,0,1,0,1,0,0,1,0,0,0,
	| 0,0,0,0,0,0,0,0,2,0,0,1,1,0,0,
	| 0,0,1,0,0,0,0,0,0,0,0,0,0,0,0,
	| 0,0,0,0,2,0,0,0,1,0,0,1,1,0,0,
	| 0,0,0,0,1,0,0,1,0,0,1,0,0,0,0,
	| 0,0,0,0,0,0,0,0,0,1,0,1,0,0,0,
	| 0,0,1,0,1,0,0,0,1,0,1,0,0,0,0,
	| 0,0,0,0,0,0,0,0,1,0,1,1,0,0,0,
	| 0,0,1,0,0,0,0,0,0,0,0,1,1,0,0,
	| 0,0,0,1,0,1,0,0,0,0,1,0,0,0,0,
	| 0,0,1,2,0,0,0,1,0,1,0,0,0,0,0,
	| 0,0,1,0,0,1,0,0,0,0,0,1,0,0,0,
	| 0,0,0,0,0,0,1,0,0,0,0,0,0,0,0,
	| 0,0,1,0,0,0,1,0,1,1,0,0,0,0,0,
	| 0,0,0,0,0,0,0,1,0,0,0,0,0,1,0,
	| 0,0,0,0,0,0,0,0,2,0,2,0,0,0,0,
	| 0,0,1,0,0,0,0,0,3,0,0,1,0,0,0,
	| 0,0,1,0,2,2,0,0,0,0,0,0,0,0,0,
	| 0,0,0,0,0,0,0,0,1,0,0,1,0,1,0,
	| 0,0,0,0,0,0,0,1,0,0,1,2,0,0,0,
	| 0,0,0,0,0,1,0,1,0,0,0,0,0,1,0,
	| 0,1,0,0,1,0,0,0,1,0,0,1,0,0,0,
	| 0,0,1,0,1,0,0,2,0,0,1,0,0,0,0,
	| 0,0,1,0,1,0,0,0,0,0,1,2,0,0,0,
	| 0,0,0,0,1,0,1,1,0,0,1,1,1,0,0,
	| 1,0,0,0,1,1,0,0,0,0,0,0,0,0,0,
	| 0,0,0,0,0,0,1,0,0,0,0,0,0,0,0,
	| 0,0,0,0,2,0,0,0,0,0,0,2,0,0,0,
	| 0,0,1,0,1,2,0,0,1,0,0,0,0,0,0,
	| 0,0,1,0,0,0,0,0,0,0,0,0,0,0,0,
	| 0,0,0,0,0,0,1,0,0,0,0,2,0,0,0,
	| 0,0,0,1,1,0,0,2,0,0,0,1,1,0,0,
	| 0,0,1,1,1,0,0,0,1,0,2,0,0,0,0,
	| 0,0,0,0,0,0,0,0,1,0,0,0,0,1,0,
	| 0,0,1,0,0,0,0,0,0,0,0,0,0,0,0,
	| 0,0,0,0,0,0,0,1,0,0,0,1,0,0,0,
	| 0,0,0,0,0,0,1,0,0,0,0,0,0,1,0,
	| 0,0,1,0,2,0,0,0,0,0,1,1,0,0,0,
	| 0,0,0,0,0,1,0,0,1,0,0,1,0,0,0,
	| 0,0,1,0,0,1,1,0,0,0,1,2,0,0,0,
	| 0,0,0,0,0,0,0,1,0,0,1,0,0,0,0,
	| 0,0,1,1,0,0,1,0,0,0,0,0,0,0,0,
	| 0,0,1,0,1,0,0,0,0,0,1,1,1,0,0,
	| 0,0,1,0,0,1,0,0,0,0,1,1,1,0,0,
	| 0,0,1,0,0,1,0,1,1,0,0,0,0,0,0,
	| 0,0,0,0,0,2,0,0,1,0,0,1,0,0,0,
	| 0,1,0,0,0,0,0,1,1,2,0,0,0,1,0,
	| 0,0,0,1,1,0,0,0,1,0,2,0,0,1,0,
	| 0,0,0,0,0,0,0,0,0,0,0,0,0,0,0, |];

% SumOfsreq = 334;

nResources = 18;
mastery = [| false,false,false,true,true,true,false,false,false,false,false,false,false,false,false,
	| false,false,false,false,false,false,true,true,true,false,false,false,false,false,false,
	| false,false,true,false,false,false,false,false,false,false,false,false,false,false,false,
	| false,false,false,false,false,false,true,true,true,false,true,true,true,true,true,
	| false,false,false,false,false,false,true,true,true,false,false,false,false,false,false,
	| true,true,true,true,true,true,false,false,false,false,false,false,false,false,false,
	| false,false,false,false,false,false,false,false,false,false,false,false,true,true,true,
	| false,false,true,false,false,false,false,false,false,true,true,true,false,false,false,
	| false,false,false,false,false,false,false,false,false,true,true,true,false,true,true,
	| false,false,false,false,false,false,false,false,false,false,false,true,false,false,false,
	| false,false,true,false,false,false,false,true,true,false,false,false,false,false,false,
	| false,false,false,true,true,true,false,false,false,false,false,false,false,false,false,
	| false,false,false,true,true,true,false,false,false,false,false,false,false,false,false,
	| false,false,false,false,false,false,false,false,false,true,true,true,false,false,true,
	| false,false,false,false,false,false,false,false,false,false,true,true,false,false,false,
	| false,false,false,false,false,false,false,false,false,false,false,true,false,false,false,
	| false,false,false,false,true,true,false,false,true,false,false,false,false,false,false,
	| false,false,false,false,false,true,false,false,false,false,false,false,false,false,false, |];

nPrecs = 138;
pred = [1,1,1,2,2,2,3,3,3,4,4,4,5,5,5,6,6,6,7,7,8,8,9,10,10,10,11,12,13,14,14,14,15,15,16,17,17,18,19,19,20,20,21,22,23,24,24,25,26,26,26,27,27,28,28,29,29,29,30,30,31,32,32,32,33,33,33,34,34,35,36,37,37,38,39,40,41,41,42,43,44,45,46,47,48,49,50,51,52,53,53,53,54,55,56,57,58,59,60,61,61,61,62,63,64,65,66,67,68,68,69,70,70,71,72,72,73,73,74,75,76,77,77,78,79,80,81,82,83,83,84,85,86,87,88,89,90,91];
succ = [2,3,4,42,21,14,69,5,8,9,54,7,11,6,15,19,24,16,26,28,10,86,57,20,12,13,18,89,33,17,22,38,25,23,17,82,64,67,27,32,39,48,90,30,51,36,37,43,44,29,78,49,73,79,31,61,46,40,67,45,72,41,34,87,66,68,47,58,35,59,64,63,56,84,50,80,55,47,56,77,81,61,53,74,71,72,51,52,66,84,60,62,88,56,72,79,75,73,83,65,75,70,64,79,71,85,78,75,76,71,83,81,76,87,74,83,77,78,81,85,88,82,90,80,80,90,85,84,89,91,88,89,87,91,91,92,92,92];

nUnrels = 3150;
unpred = [2,2,2,2,2,2,2,2,2,2,2,2,2,2,2,2,2,2,2,2,2,2,2,2,2,2,2,2,2,2,2,2,2,2,2,2,2,2,2,2,2,2,2,2,2,2,2,2,2,2,2,2,2,2,2,2,2,2,2,2,3,3,3,3,3,3,3,3,3,3,3,3,3,3,3,3,3,3,3,3,3,3,3,3,3,4,4,4,4,4,4,4,4,4,4,4,4,4,4,4,4,4,4,4,4,4,4,4,4,4,4,4,4,4,4,4,4,4,4,4,4,4,4,4,4,4,4,4,4,4,4,4,4,4,4,4,4,5,5,5,5,5,5,5,5,5,5,5,5,5,5,5,5,5,5,5,5,5,5,5,5,5,5,5,5,5,5,5,5,5,5,5,5,5,6,6,6,6,6,6,6,6,6,6,6,6,6,6,6,6,6,6,6,6,6,6,6,6,6,6,6,6,6,6,6,6,6,6,6,6,6,6,6,6,6,6,6,6,6,6,6,7,7,7,7,7,7,7,7,7,7,7,7,7,7,7,7,7,7,7,7,7,7,7,7,7,7,7,7,7,7,7,7,7,7,7,7,7,7,7,7,7,7,7,7,7,7,7,7,7,7,7,7,7,8,8,8,8,8,8,8,8,8,8,8,8,8,8,8,8,8,8,8,8,8,8,8,8,8,8,8,8,8,8,8,8,8,8,8,8,8,8,8,8,8,8,8,8,8,8,8,8,8,8,8,8,8,8,8,8,8,9,9,9,9,9,9,9,9,9,9,9,9,9,9,9,9,9,9,9,9,9,9,9,9,9,9,9,9,9,9,9,9,9,9,9,9,9,9,9,9,9,9,9,9,9,9,9,9,9,9,9,9,9,9,9,9,9,9,9,9,9,9,9,9,9,9,9,9,9,9,9,9,9,9,9,9,9,9,10,10,10,10,10,10,10,10,10,10,10,10,10,10,10,10,10,10,10,10,10,10,10,10,10,10,10,10,10,10,10,10,10,10,10,10,10,10,10,10,10,10,10,10,10,10,10,10,10,10,10,10,10,10,10,10,10,11,11,11,11,11,11,11,11,11,11,11,11,11,11,11,11,11,11,11,11,11,11,11,11,11,11,11,11,11,11,11,11,11,11,11,11,11,11,11,11,11,11,11,11,11,11,11,11,11,11,11,11,11,11,11,11,11,11,11,11,11,11,11,11,11,11,11,11,11,11,11,11,11,11,11,12,12,12,12,12,12,12,12,12,12,12,12,12,12,12,12,12,12,12,12,12,12,12,12,12,12,12,12,12,12,12,12,12,12,12,12,12,12,12,12,12,12,12,12,12,12,12,12,12,12,12,12,12,12,12,12,12,12,12,12,12,12,12,12,12,12,12,12,12,12,12,12,12,12,12,12,12,12,13,13,13,13,13,13,13,13,13,13,13,13,13,13,13,13,13,13,13,13,13,13,13,13,13,13,13,13,13,13,13,13,13,13,13,13,13,13,13,13,13,13,13,13,13,13,13,13,13,13,13,13,13,13,13,13,13,13,13,13,13,13,14,14,14,14,14,14,14,14,14,14,14,14,14,14,14,14,14,14,14,14,14,14,14,14,14,14,14,14,14,14,14,14,14,14,14,14,14,14,14,14,14,14,14,14,14,14,14,14,14,14,14,14,14,14,14,14,15,15,15,15,15,15,15,15,15,15,15,15,15,15,15,15,15,15,15,15,15,15,15,15,15,15,15,15,15,15,15,15,15,15,15,15,15,15,15,15,15,15,15,15,15,15,15,15,15,15,15,15,15,15,15,15,15,15,15,15,15,15,16,16,16,16,16,16,16,16,16,16,16,16,16,16,16,16,16,16,16,16,16,16,16,16,16,16,16,16,16,16,16,16,16,16,16,16,16,16,16,16,16,16,16,16,16,16,16,16,16,16,16,16,16,16,16,16,16,16,16,16,16,16,16,16,16,16,16,17,17,17,17,17,17,17,17,17,17,17,17,17,17,17,17,17,17,17,17,17,17,17,17,17,17,17,17,17,17,17,17,17,17,17,17,17,17,17,17,17,17,17,17,17,17,17,17,17,17,17,17,17,17,17,17,17,17,17,17,17,17,17,17,17,17,17,18,18,18,18,18,18,18,18,18,18,18,18,18,18,18,18,18,18,18,18,18,18,18,18,18,18,18,18,18,18,18,18,18,18,18,18,18,18,18,18,18,18,18,18,18,18,18,18,18,18,18,18,18,18,18,18,18,18,18,18,18,18,18,18,18,18,18,18,18,19,19,19,19,19,19,19,19,19,19,19,19,19,19,19,19,19,19,19,19,19,19,19,19,19,19,19,19,19,19,19,19,19,19,19,19,19,19,19,19,19,19,19,19,20,20,20,20,20,20,20,20,20,20,20,20,20,20,20,20,20,20,20,20,20,20,20,20,20,20,20,20,20,20,20,20,20,20,20,20,20,20,20,20,20,20,20,20,20,20,20,20,20,20,20,20,20,20,20,20,20,20,20,21,21,21,21,21,21,21,21,21,21,21,21,21,21,21,21,21,21,21,21,21,21,21,21,21,21,21,21,21,21,21,21,21,21,21,21,21,21,21,21,21,21,21,21,21,21,21,21,21,21,21,21,21,21,21,21,21,21,21,21,21,21,21,21,21,21,21,21,21,22,22,22,22,22,22,22,22,22,22,22,22,22,22,22,22,22,22,22,22,22,22,22,22,22,22,22,22,22,22,22,22,22,22,22,22,22,22,22,22,22,22,22,22,22,22,22,22,22,22,22,22,22,22,22,22,23,23,23,23,23,23,23,23,23,23,23,23,23,23,23,23,23,23,23,23,23,23,23,23,23,23,23,23,23,23,23,23,23,23,23,23,23,23,23,23,23,23,23,23,23,23,23,23,23,23,23,23,23,23,23,23,23,23,23,23,23,23,24,24,24,24,24,24,24,24,24,24,24,24,24,24,24,24,24,24,24,24,24,24,24,24,24,24,24,24,24,24,24,24,24,24,24,24,24,24,24,24,24,24,24,24,24,24,24,24,24,24,25,25,25,25,25,25,25,25,25,25,25,25,25,25,25,25,25,25,25,25,25,25,25,25,25,25,25,25,25,25,25,25,25,25,25,25,25,25,25,25,25,25,25,25,25,25,25,25,25,25,25,25,25,25,25,25,25,25,25,26,26,26,26,26,26,26,26,26,26,26,26,26,26,26,26,26,26,26,26,26,26,26,26,26,26,26,26,26,26,26,26,26,26,26,26,26,26,26,26,27,27,27,27,27,27,27,27,27,27,27,27,27,27,27,27,27,27,27,27,27,27,27,27,27,27,27,27,27,27,27,27,27,27,27,27,27,27,27,27,27,27,27,27,27,27,27,27,28,28,28,28,28,28,28,28,28,28,28,28,28,28,28,28,28,28,28,28,28,28,28,28,28,28,28,28,28,28,28,28,28,28,28,28,28,28,28,28,28,28,28,28,28,28,28,28,28,28,28,28,29,29,29,29,29,29,29,29,29,29,29,29,29,29,29,29,29,29,29,29,29,29,29,29,29,29,29,29,29,29,29,29,29,29,29,29,29,29,29,29,30,30,30,30,30,30,30,30,30,30,30,30,30,30,30,30,30,30,30,30,30,30,30,30,30,30,30,30,30,30,30,30,30,30,30,30,30,30,30,30,30,30,30,30,30,30,30,30,30,31,31,31,31,31,31,31,31,31,31,31,31,31,31,31,31,31,31,31,31,31,31,31,31,31,31,31,31,31,31,31,31,31,31,31,31,31,31,31,31,31,31,31,31,31,31,31,31,31,31,31,31,31,32,32,32,32,32,32,32,32,32,32,32,32,32,32,32,32,32,32,32,32,32,32,32,32,32,32,32,32,32,32,32,32,32,32,33,33,33,33,33,33,33,33,33,33,33,33,33,33,33,33,33,33,33,33,33,33,33,33,33,33,33,33,33,33,33,33,33,33,33,33,33,33,33,33,33,33,33,34,34,34,34,34,34,34,34,34,34,34,34,34,34,34,34,34,34,34,34,34,34,34,34,34,34,34,34,34,34,34,34,34,34,34,34,34,34,34,34,34,34,35,35,35,35,35,35,35,35,35,35,35,35,35,35,35,35,35,35,35,35,35,35,35,35,35,35,35,35,35,35,35,35,35,35,35,35,35,35,35,35,35,35,35,35,35,35,36,36,36,36,36,36,36,36,36,36,36,36,36,36,36,36,36,36,36,36,36,36,36,36,36,36,36,36,36,36,36,36,36,36,36,36,36,36,36,36,36,36,36,36,36,36,36,36,36,36,36,37,37,37,37,37,37,37,37,37,37,37,37,37,37,37,37,37,37,37,37,37,37,37,37,37,37,37,37,37,37,37,37,37,37,37,37,37,37,37,37,37,37,38,38,38,38,38,38,38,38,38,38,38,38,38,38,38,38,38,38,38,38,38,38,38,38,38,38,38,38,38,38,38,38,38,38,38,38,38,38,38,38,38,38,38,38,38,38,38,38,38,38,39,39,39,39,39,39,39,39,39,39,39,39,39,39,39,39,39,39,39,39,39,39,39,39,39,39,39,39,39,39,39,39,39,39,39,39,39,39,39,39,39,39,39,39,39,40,40,40,40,40,40,40,40,40,40,40,40,40,40,40,40,40,40,40,40,40,40,40,40,40,40,40,40,40,40,40,40,40,40,40,40,40,40,40,40,40,40,40,40,40,40,40,40,40,41,41,41,41,41,41,41,41,41,41,41,41,41,41,41,41,41,41,41,41,41,41,41,41,41,41,41,41,41,41,41,41,41,41,41,41,41,41,41,41,42,42,42,42,42,42,42,42,42,42,42,42,42,42,42,42,42,42,42,42,42,42,42,42,42,42,42,42,42,42,42,42,42,42,42,42,42,42,42,42,42,43,43,43,43,43,43,43,43,43,43,43,43,43,43,43,43,43,43,43,43,43,43,43,43,43,43,43,43,43,43,43,43,43,43,43,43,43,43,43,43,43,43,44,44,44,44,44,44,44,44,44,44,44,44,44,44,44,44,44,44,44,44,44,44,44,44,44,44,44,44,44,44,44,44,44,44,44,44,44,44,44,44,44,44,44,44,45,45,45,45,45,45,45,45,45,45,45,45,45,45,45,45,45,45,45,45,45,45,45,45,45,45,45,45,45,45,45,45,45,45,45,45,46,46,46,46,46,46,46,46,46,46,46,46,46,46,46,46,46,46,46,46,46,46,46,46,46,46,46,46,46,46,46,46,46,46,47,47,47,47,47,47,47,47,47,47,47,47,47,47,47,47,47,47,47,47,47,47,47,47,47,47,47,47,47,47,47,47,47,47,47,47,47,47,47,47,48,48,48,48,48,48,48,48,48,48,48,48,48,48,48,48,48,48,48,48,48,48,48,48,48,48,48,48,48,48,48,48,48,48,48,48,48,48,48,48,49,49,49,49,49,49,49,49,49,49,49,49,49,49,49,49,49,49,49,49,49,49,49,49,49,49,49,49,49,49,49,49,49,49,49,50,50,50,50,50,50,50,50,50,50,50,50,50,50,50,50,50,50,50,50,50,50,50,50,50,50,50,50,50,50,50,50,50,50,50,51,51,51,51,51,51,51,51,51,51,51,51,51,51,51,51,51,51,51,51,51,51,51,51,51,51,51,51,51,51,51,51,51,51,51,52,52,52,52,52,52,52,52,52,52,52,52,52,52,52,52,52,52,52,52,52,52,52,52,52,52,52,52,52,52,52,52,52,52,52,53,53,53,53,53,53,53,53,53,53,53,53,53,53,53,53,53,53,53,53,53,53,53,53,53,53,53,53,54,54,54,54,54,54,54,54,54,54,54,54,54,54,54,54,54,54,54,54,54,54,54,54,54,54,54,54,54,54,54,54,54,54,54,55,55,55,55,55,55,55,55,55,55,55,55,55,55,55,55,55,55,55,55,55,55,55,55,55,55,55,55,56,56,56,56,56,56,56,56,56,56,56,56,56,56,56,56,56,56,56,56,56,56,56,56,56,56,56,56,57,57,57,57,57,57,57,57,57,57,57,57,57,57,57,57,57,57,57,57,57,57,57,57,57,57,57,57,57,57,57,58,58,58,58,58,58,58,58,58,58,58,58,58,58,58,58,58,58,58,58,58,58,58,58,58,58,58,58,58,58,59,59,59,59,59,59,59,59,59,59,59,59,59,59,59,59,59,59,59,59,59,59,59,60,60,60,60,60,60,60,60,60,60,60,60,60,60,60,60,60,60,60,60,60,60,60,60,60,60,60,60,61,61,61,61,61,61,61,61,61,61,61,61,61,61,61,61,61,61,61,61,61,62,62,62,62,62,62,62,62,62,62,62,62,62,62,62,62,62,62,62,62,62,62,62,62,62,63,63,63,63,63,63,63,63,63,63,63,63,63,63,63,63,63,63,63,63,63,63,63,63,63,64,64,64,64,64,64,64,64,64,64,64,64,64,64,64,64,64,64,64,64,64,64,64,64,65,65,65,65,65,65,65,65,65,65,65,65,65,65,65,65,65,65,65,65,65,65,65,65,66,66,66,66,66,66,66,66,66,66,66,66,66,66,66,66,66,66,66,66,66,66,67,67,67,67,67,67,67,67,67,67,67,67,67,67,67,67,67,67,67,67,67,68,68,68,68,68,68,68,68,68,68,68,68,68,68,68,68,68,68,69,69,69,69,69,69,69,69,69,69,69,69,69,69,69,69,69,69,69,70,70,70,70,70,70,70,70,70,70,70,70,70,70,70,71,71,71,71,71,71,71,71,71,71,71,71,71,71,71,71,71,71,72,72,72,72,72,72,72,72,72,72,72,72,72,73,73,73,73,73,73,73,73,73,73,74,74,74,74,74,74,74,74,74,74,74,74,74,74,75,75,75,75,75,75,75,75,75,75,75,75,75,75,76,76,76,76,76,76,76,76,76,76,76,76,76,77,77,77,77,77,77,77,77,77,78,78,78,78,78,78,78,78,78,78,78,79,79,79,79,79,79,79,79,79,79,80,80,80,80,80,80,80,80,80,80,81,81,81,81,81,81,81,81,82,82,82,82,82,82,83,83,83,83,83,83,84,84,84,84,84,85,85,85,85,85,86,86,86,87,87,87,88,88,89,89,90];
unsucc = [3,4,5,6,7,8,9,10,11,12,13,15,16,18,19,20,23,24,25,26,27,28,29,31,32,33,34,35,36,37,39,40,41,43,44,46,47,48,49,50,51,52,53,54,55,57,58,59,60,62,63,66,68,69,73,77,78,79,80,86,4,7,9,14,21,22,26,28,29,30,31,38,40,42,44,45,46,53,54,57,60,61,62,65,70,5,6,8,10,11,12,13,14,15,16,17,18,19,20,21,22,23,24,25,27,30,32,33,34,35,36,37,38,39,41,42,43,45,47,48,49,50,51,52,55,56,58,59,63,66,67,68,69,73,77,82,86,7,8,9,10,12,13,14,20,21,22,26,28,29,30,31,33,38,39,40,42,44,45,46,48,50,53,54,57,60,61,62,65,68,69,70,76,86,7,8,9,10,11,12,13,14,15,18,20,21,22,23,25,26,28,29,30,31,33,38,39,40,42,43,44,45,46,48,50,51,52,53,54,57,60,61,62,65,66,67,68,69,70,76,86,8,9,10,11,12,13,14,15,16,17,18,19,20,21,22,23,24,25,27,30,32,33,34,35,36,37,38,39,41,42,43,45,47,48,49,50,51,52,54,55,56,57,58,59,63,66,67,68,69,73,77,82,86,9,11,14,15,16,17,18,19,21,22,23,24,25,26,27,28,29,30,31,32,34,35,36,37,38,40,41,42,43,44,45,46,49,53,54,55,56,57,58,59,60,61,62,63,64,65,67,69,70,72,73,75,77,79,82,83,84,10,11,12,13,14,15,16,17,18,19,20,21,22,23,24,25,26,27,28,29,30,31,32,33,34,35,36,37,38,39,40,41,42,43,44,45,46,47,48,49,50,51,52,53,54,55,56,58,59,60,61,62,63,64,65,66,67,68,69,70,71,72,73,74,75,76,77,78,81,82,83,84,85,86,87,88,89,91,11,14,15,16,17,18,19,21,22,23,24,25,26,27,28,29,30,31,32,34,35,36,37,38,40,41,42,43,44,45,46,49,53,54,55,56,57,58,59,60,61,62,63,64,65,67,69,70,72,73,75,77,79,82,83,84,86,12,13,14,15,16,17,19,20,21,22,23,24,25,26,27,28,29,30,31,32,33,34,35,36,37,38,39,40,41,42,43,44,45,46,47,48,49,50,51,52,53,54,55,56,57,58,59,60,61,62,63,64,65,66,68,69,70,71,72,73,74,76,77,78,79,80,81,82,83,84,86,87,88,90,91,13,14,15,16,17,18,19,20,21,22,23,24,25,26,27,28,29,30,31,32,33,34,35,36,37,38,39,40,41,42,43,44,45,46,47,48,49,50,51,52,53,54,55,56,57,58,59,60,61,62,63,64,65,66,67,68,69,70,71,72,73,74,75,76,77,78,79,80,81,82,83,84,85,86,87,88,90,91,14,15,16,17,18,19,20,21,22,23,24,25,26,27,28,29,30,31,32,34,35,36,37,38,39,40,41,42,43,44,45,46,48,49,50,51,52,53,54,55,56,57,58,59,60,61,62,63,64,65,67,69,70,72,73,75,77,79,82,83,84,86,15,16,18,19,20,21,23,24,25,26,27,28,29,31,32,33,34,35,36,37,39,40,41,42,43,44,46,47,48,49,50,51,52,53,54,55,56,57,58,59,60,62,63,66,68,69,72,73,74,77,78,79,80,83,86,90,16,17,18,19,20,21,22,24,26,27,28,29,30,31,32,33,34,35,36,37,38,39,40,41,42,44,45,46,47,48,49,50,53,54,55,56,57,58,59,60,61,62,63,64,65,67,68,69,70,71,72,73,74,75,76,79,81,83,85,86,87,89,18,19,20,21,22,23,24,25,26,27,28,29,30,31,32,33,34,35,36,37,38,39,40,41,42,43,44,45,46,47,48,49,50,51,52,53,54,55,56,57,58,59,60,61,62,63,65,66,67,68,69,70,72,73,74,75,76,77,78,79,80,81,83,85,86,89,90,18,19,20,21,22,23,24,25,26,27,28,29,30,31,32,33,34,35,36,37,38,39,40,41,42,43,44,45,46,47,48,49,50,51,52,53,54,55,56,57,58,59,60,61,62,63,65,66,67,68,69,70,72,73,74,75,76,77,78,79,80,81,83,85,86,89,90,19,20,21,22,23,24,25,26,27,28,29,30,31,32,33,34,35,36,37,38,39,40,41,42,43,44,45,46,47,48,49,50,51,52,53,54,55,56,57,58,59,60,61,62,63,64,65,66,68,69,70,71,72,73,74,76,77,78,79,80,81,82,83,84,86,87,88,90,91,20,21,22,23,24,25,26,28,29,30,31,33,36,37,38,39,40,42,43,44,45,46,48,50,51,52,53,54,57,60,61,62,63,64,65,66,67,68,69,70,71,76,79,86,21,22,23,24,25,26,27,28,29,30,31,32,33,34,35,36,37,38,40,41,42,43,44,45,46,47,49,53,54,55,56,57,58,59,60,61,62,63,64,65,67,68,69,70,72,73,74,75,76,77,79,81,82,83,84,85,86,88,89,22,23,24,25,26,27,28,29,30,31,32,33,34,35,36,37,38,39,40,41,42,43,44,45,46,47,48,49,50,51,52,53,54,55,56,57,58,59,60,61,62,63,64,65,66,67,68,69,70,71,72,73,74,75,76,77,78,79,80,81,82,83,84,85,86,87,88,89,91,23,24,25,26,27,28,29,31,32,33,34,35,36,37,38,39,40,41,42,43,44,46,47,48,49,50,51,52,53,54,55,56,57,58,59,60,62,63,64,66,68,69,71,72,73,74,77,78,79,80,82,83,84,86,87,90,24,25,26,27,28,29,30,31,32,33,34,35,36,37,38,39,40,41,42,43,44,45,46,47,48,49,50,53,54,55,56,57,58,59,60,61,62,63,64,65,67,68,69,70,71,72,73,74,75,76,77,79,81,82,83,84,85,86,87,88,89,91,25,26,27,28,29,30,31,32,33,34,35,38,39,40,41,42,43,44,45,46,47,48,49,50,51,52,53,54,55,57,58,59,60,61,62,65,66,67,68,69,70,73,75,76,77,78,82,84,86,88,26,27,28,29,30,31,32,33,34,35,36,37,38,39,40,41,42,44,45,46,47,48,49,50,51,52,53,54,55,56,57,58,59,60,61,62,63,64,65,66,67,68,69,70,71,72,73,74,75,76,78,79,80,81,83,85,86,87,89,27,28,30,31,32,33,34,35,36,37,38,39,41,42,43,45,47,48,49,50,51,52,54,55,56,57,58,59,63,66,67,68,69,72,73,74,77,79,82,86,28,29,30,31,32,33,34,35,36,37,38,39,40,41,42,43,44,45,46,47,48,50,51,52,53,54,55,56,57,58,59,60,61,62,63,64,65,66,67,68,69,70,71,75,76,79,86,87,29,30,32,33,34,35,36,37,38,39,40,41,42,43,44,45,46,47,48,49,50,51,52,53,54,55,56,57,58,59,60,61,62,63,64,65,66,67,68,69,70,71,73,75,76,77,78,82,84,86,87,88,30,31,32,33,34,35,36,37,38,39,41,42,43,44,45,47,48,49,50,51,52,54,55,56,57,58,59,63,66,67,68,69,72,73,74,77,78,79,82,86,31,32,33,34,35,36,37,38,39,40,41,42,43,44,46,47,48,49,50,51,52,53,54,55,56,57,58,59,60,62,63,64,66,68,69,71,72,73,74,77,78,79,80,82,83,84,86,87,90,32,33,34,35,36,37,38,39,40,41,42,43,44,45,46,47,48,49,50,51,52,53,54,55,56,57,58,59,60,61,62,63,64,65,66,67,68,69,70,71,73,75,76,77,78,79,80,82,84,86,87,88,90,33,36,37,38,39,40,42,43,44,45,46,48,49,50,51,52,53,54,57,60,61,62,63,64,65,66,67,68,69,70,71,76,79,86,34,35,36,37,38,39,40,41,42,43,44,45,46,48,49,50,51,52,53,54,55,56,57,58,59,60,61,62,63,64,65,67,69,70,72,73,75,77,79,82,83,84,86,36,37,38,39,40,41,42,43,44,45,46,47,48,49,50,51,52,53,54,55,56,57,60,61,62,63,64,65,66,67,68,69,70,71,72,74,76,79,81,83,86,87,36,37,38,39,40,41,42,43,44,45,46,47,48,49,50,51,52,53,54,55,56,57,58,60,61,62,63,64,65,66,67,68,69,70,71,72,74,75,76,79,81,83,85,86,87,89,37,38,39,40,41,42,43,44,45,46,47,48,49,50,51,52,53,54,55,56,57,58,59,60,61,62,63,65,66,67,68,69,70,72,73,74,75,76,77,78,79,80,81,82,83,84,85,86,88,89,90,38,39,40,41,42,43,44,45,46,47,48,49,50,51,52,53,54,55,57,58,59,60,61,62,64,65,66,67,68,69,70,71,73,75,76,77,78,82,84,86,87,88,39,40,41,42,43,44,45,46,47,48,49,50,51,52,53,54,55,56,57,58,59,60,61,62,63,64,65,66,67,68,69,70,71,72,73,74,75,76,77,78,79,80,81,82,83,85,86,87,89,90,40,41,42,43,44,45,46,47,48,49,53,54,55,56,57,58,59,60,61,62,63,64,65,67,68,69,70,71,72,73,74,75,76,77,79,81,82,83,84,85,86,87,88,89,91,41,42,43,44,45,46,47,48,49,50,51,52,53,54,55,56,57,58,59,60,61,62,63,64,65,66,67,68,69,70,71,72,73,74,75,76,77,78,79,81,82,83,84,85,86,87,88,89,91,42,43,44,45,46,48,49,50,51,52,53,54,57,58,59,60,61,62,63,64,65,66,67,68,69,70,71,73,75,76,77,78,79,80,82,84,86,87,88,90,43,44,45,46,47,48,49,50,51,52,53,54,55,57,58,59,60,61,62,63,64,65,66,67,68,69,70,71,73,75,76,77,78,79,80,82,84,86,87,88,90,44,45,46,47,48,49,50,51,52,53,54,55,56,57,58,59,60,61,62,63,64,65,66,67,68,69,70,71,72,73,74,75,76,78,79,80,81,83,85,86,87,89,45,46,47,48,49,50,51,52,53,54,55,56,57,58,59,60,61,62,63,64,65,66,67,68,69,70,71,72,73,74,75,76,77,78,79,80,82,83,84,86,87,88,90,91,46,47,48,49,50,51,52,53,54,55,56,57,58,59,60,62,63,64,66,67,68,69,71,72,73,74,77,78,79,80,82,83,84,86,87,90,47,48,49,50,51,52,54,55,56,57,58,59,61,63,65,66,67,68,69,70,72,73,74,75,76,77,78,79,80,81,82,85,86,90,48,49,50,51,52,53,54,55,56,57,58,59,60,61,62,63,64,65,66,67,68,69,70,71,72,73,75,76,77,78,79,80,82,83,84,86,87,88,90,91,49,50,51,52,53,54,55,56,57,58,59,60,61,62,63,64,65,66,67,68,69,70,72,73,74,75,76,77,78,79,80,81,82,83,84,85,86,88,89,90,50,51,52,53,54,55,56,57,58,59,60,61,62,63,64,65,66,67,68,69,70,71,73,75,76,77,78,79,80,82,84,86,87,88,90,53,54,55,56,57,58,59,60,61,62,63,64,65,67,68,69,70,71,72,73,74,75,76,77,79,81,82,83,84,85,86,87,88,89,91,53,54,55,56,57,58,59,60,61,62,63,64,65,67,68,69,70,71,72,73,74,75,76,77,79,81,82,83,84,85,86,87,88,89,91,53,54,55,56,57,58,59,60,61,62,63,64,65,67,68,69,70,71,72,73,74,75,76,77,79,81,82,83,84,85,86,87,88,89,91,54,55,56,57,58,59,61,63,65,66,67,68,69,70,72,73,74,75,76,77,78,79,80,81,82,85,86,90,55,56,57,58,59,60,61,62,63,64,65,66,67,68,69,70,71,72,73,74,75,76,77,78,79,80,81,82,83,84,85,86,87,89,90,57,58,59,60,61,62,63,64,65,66,67,68,69,70,71,73,75,76,77,78,79,80,82,84,86,87,88,90,57,58,59,60,61,62,63,64,65,66,67,68,69,70,71,73,75,76,77,78,79,80,82,84,86,87,88,90,58,59,60,61,62,63,64,65,66,67,68,69,70,71,72,73,74,75,76,77,78,81,82,83,84,85,86,87,88,89,91,59,60,61,62,63,64,65,66,67,68,69,70,71,72,73,74,76,77,78,79,80,81,82,83,84,86,87,88,90,91,60,61,62,63,64,65,66,67,68,69,70,71,72,74,75,76,79,81,83,85,86,87,89,61,62,63,64,65,66,67,68,69,70,71,72,73,74,75,76,77,78,79,80,81,82,84,85,86,87,88,90,62,63,64,66,67,68,69,71,72,73,74,77,78,79,80,82,83,84,86,87,90,63,65,66,67,68,69,70,72,73,74,75,76,77,78,79,80,81,82,83,84,85,86,88,89,90,64,65,66,67,68,69,70,71,72,73,74,75,76,77,78,81,82,83,84,85,86,87,88,89,91,65,66,67,68,69,70,72,73,74,75,76,77,78,79,80,81,82,83,84,85,86,88,89,90,66,67,68,69,70,71,72,73,74,75,76,77,78,79,80,81,82,83,84,86,87,88,90,91,67,68,69,70,71,72,73,74,75,76,77,79,81,82,83,84,85,86,87,88,89,91,68,69,70,71,72,73,74,76,77,78,79,80,81,82,83,84,86,87,88,90,91,69,70,72,73,74,75,77,78,79,80,81,82,83,84,85,86,89,90,70,71,72,73,74,75,76,77,78,79,80,81,82,84,85,86,87,88,90,71,72,73,74,75,77,78,79,80,82,83,84,86,87,90,72,73,74,75,76,77,78,79,80,81,82,83,84,85,86,88,89,90,73,75,76,77,78,79,80,82,84,86,87,88,90,74,75,76,79,81,83,85,86,87,89,75,76,77,78,79,80,82,83,84,86,87,88,90,91,76,77,78,79,80,81,82,83,84,86,87,88,90,91,77,78,79,80,81,82,83,84,85,86,87,89,90,78,79,80,81,83,85,86,87,89,79,81,82,83,84,85,86,87,88,89,91,81,82,83,84,85,86,87,88,89,91,81,82,83,84,85,86,87,88,89,91,82,83,84,86,87,88,90,91,83,85,86,87,89,90,84,85,86,87,88,90,85,86,87,89,90,86,87,88,90,91,88,89,90,88,89,90,89,90,90,91,91];

USEFUL_RES = [{},
	{2,3,4,5,6,7,8,11,17},
	{1,2,4,5,6,8,9,12,13,14,15,17,18},
	{1,2,4,5,6,8,9,10,11,12,13,14,15,16,17},
	{3,4,6,8,9,10,11,14,15,16},
	{1,2,4,5,6,8,9,10,11,12,13,14,15,16,17},
	{1,2,4,5,6,8,9,11,12,13,14,15,17,18},
	{1,4,6,7,8,9,10,12,13,14,15,16,17},
	{1,2,4,5,6,8,9,11,12,13,14,15,17},
	{1,2,4,5,6,8,9,10,11,12,13,14,15,16,17,18},
	{2,4,5,11,17},
	{1,6,8,9,12,13,14,17},
	{1,2,4,5,6,12,13},
	{1,2,3,4,5,6,7,8,9,11,12,13,14,15,17,18},
	{1,2,4,5,6,7,8,9,10,12,13,14,15,16,17,18},
	{1,2,4,5,6,8,9,11,12,13,14,17},
	{1,4,6,7,12,13,17,18},
	{1,2,4,5,6,8,9,11,12,13,14,15,17},
	{1,4,6,7,9,12,13,14,17,18},
	{1,3,6,8,11,12,13,17,18},
	{1,3,4,6,7,8,9,11,12,13,17,18},
	{4,7,9},
	{1,2,4,5,6,7,8,9,10,11,12,13,14,15,16,17},
	{1,6,12,13,17,18},
	{2,3,4,5,6,8,9,11,14,17},
	{1,2,3,4,5,6,8,9,10,11,12,13,14,15,16,17,18},
	{1,3,4,6,8,9,10,11,12,13,14,15,16,17},
	{1,2,3,4,5,6,8,9,10,11,12,13,14,15,16,17},
	{1,2,4,5,6,8,9,10,12,13,14,15,16,17},
	{2,3,4,5,6,8,9,10,11,14,15,16,17},
	{1,2,4,5,6,8,9,11,12,13,14,15,17},
	{1,3,4,6,8,9,10,11,12,13,14,15,16,17,18},
	{1,2,4,5,6,8,9,10,11,12,13,14,15,16,17,18},
	{1,2,3,4,5,6,8,9,10,11,12,13,14,15,16,17,18},
	{1,4,6,8,9,10,12,13,14,15,16,17,18},
	{4,8,9,14,15},
	{2,4,5,8,9,11,14,15},
	{1,3,4,6,8,9,11,12,13,14,15},
	{1,3,4,6,7,8,11,12,13,17,18},
	{4,7,8,9,10,14,15,16},
	{2,3,4,5,6,8,9,10,11,14,15,16,17},
	{1,6,8,9,12,13,14,17},
	{1,4,6,7,8,9,12,13,14,17},
	{1,2,4,5,6,8,9,10,11,12,13,14,15,16,17},
	{2,4,5,7,8,9,10,11,14,15,16,17},
	{3,6,8,11},
	{1,2,4,5,6,7,8,9,10,11,12,13,14,15,16,17},
	{1,2,4,5,6,8,9,11,12,13,14,15,17},
	{4,8,9,10,14,15,16},
	{1,2,3,4,5,6,8,9,11,12,13,14,15,17},
	{2,4,5,8,9,10,11,14,15,16,17},
	{3,4,6,7,8,9,10,11,14,15,16},
	{1,4,6,8,9,12,13,14,15,17,18},
	{1,2,3,4,5,6,8,9,11,12,13,14},
	{1,3,4,6,8,9,10,11,12,13,14,15,16,17,18},
	{2,4,5},
	{2,3,4,5,6,8,9,11,14,17},
	{2,4,5,7,9,11},
	{2,4,5,8,9,11,14,15,17},
	{2,3,4,5,6,8,9,10,11,14,15,16,17},
	{1,3,6,8,11,12,13,17,18},
	{2,4,5,7,8,9,10,11,14,15,16,17},
	{2,4,5,8,9,10,11,14,15,16},
	{1,2,4,5,6,7,9,11,12,13,17,18},
	{1,2,4,5,6,8,9,10,11,12,13,14,15,16,17},
	{1,2,3,4,5,6,8,9,11,12,13,14,15,17},
	{1,3,4,6,8,9,10,11,12,13,14,15,16,17},
	{1,2,4,5,6,7,8,9,10,11,12,13,14,15,16,17},
	{1,6,12,13,17,18},
	{2,4,5},
	{1,4,6,8,9,10,12,13,14,15,16,17},
	{1,2,3,4,5,6,8,11,12,13,17,18},
	{3,6,8,11},
	{2,4,5,8,9,10,14,15,16},
	{1,2,4,5,6,7,8,9,10,11,12,13,14,15,16,17},
	{1,2,3,4,5,6,8,9,11,12,13,14,15,17},
	{2,4,5,7,9,11,17},
	{3,6,8,11},
	{2,4,5,8,9,10,11,14,15,16},
	{2,4,5,7,9},
	{1,3,4,6,8,9,10,11,12,13,14,15,16,17},
	{1,2,4,5,6,8,9,10,11,12,13,14,15,16,17,18},
	{1,2,3,4,5,6,8,9,10,11,12,13,14,15,16,17,18},
	{2,4,5,8,9,11,14,15},
	{1,2,3,4,5,6,8,11,12,13},
	{1,3,4,6,7,8,9,10,11,12,13,14,15,16,17},
	{1,3,4,6,7,8,9,10,11,12,13,14,15,16,17,18},
	{1,2,3,4,5,6,8,11,12,13,17,18},
	{1,2,4,5,6,8,9,10,11,12,13,14,15,16,17,18},
	{2,4,5,6,7,8,9,11,14,17},
	{1,2,4,5,6,7,8,9,11,12,13,14,15,17},
	{}];

POTENTIAL_ACT = [{3,4,6,7,8,9,10,12,13,14,15,16,17,18,19,20,21,23,24,26,27,28,29,31,32,33,34,35,38,39,42,43,44,47,48,50,53,54,55,61,64,65,66,67,68,69,71,72,75,76,81,82,83,85,86,87,88,89,91},
	{2,3,4,6,7,9,10,11,13,14,15,16,18,23,25,26,28,29,30,31,33,34,37,41,44,45,47,48,50,51,54,56,57,58,59,60,62,63,64,65,66,68,70,72,74,75,76,77,79,80,82,83,84,85,88,89,90,91},
	{2,5,14,20,21,25,26,27,28,30,32,34,38,39,41,46,50,52,54,55,57,60,61,66,67,72,73,76,78,81,83,85,86,87,88},
	{2,3,4,5,6,7,8,9,10,11,13,14,15,16,17,18,19,21,22,23,25,26,27,28,29,30,31,32,33,34,35,36,37,38,39,40,41,43,44,45,47,48,49,50,51,52,53,54,55,56,57,58,59,60,62,63,64,65,66,67,68,70,71,72,74,75,76,77,79,80,81,82,83,84,85,86,87,88,89,90,91},
	{2,3,4,6,7,9,10,11,13,14,15,16,18,23,25,26,28,29,30,31,33,34,37,41,44,45,47,48,50,51,54,56,57,58,59,60,62,63,64,65,66,68,70,72,74,75,76,77,79,80,82,83,84,85,88,89,90,91},
	{2,3,4,5,6,7,8,9,10,12,13,14,15,16,17,18,19,20,21,23,24,25,26,27,28,29,30,31,32,33,34,35,38,39,41,42,43,44,46,47,48,50,52,53,54,55,57,60,61,64,65,66,67,68,69,71,72,73,75,76,78,81,82,83,85,86,87,88,89,90,91},
	{2,8,14,15,17,19,21,22,23,39,40,43,45,47,52,58,62,64,68,75,77,80,86,87,90,91},
	{2,3,4,5,6,7,8,9,10,12,14,15,16,18,20,21,23,25,26,27,28,29,30,31,32,33,34,35,36,37,38,39,40,41,42,43,44,45,46,47,48,49,50,51,52,53,54,55,57,59,60,61,62,63,65,66,67,68,71,72,73,74,75,76,78,79,81,82,83,84,85,86,87,88,89,90,91},
	{3,4,5,6,7,8,9,10,12,14,15,16,18,19,21,22,23,25,26,27,28,29,30,31,32,33,34,35,36,37,38,40,41,42,43,44,45,47,48,49,50,51,52,53,54,55,57,58,59,60,62,63,64,65,66,67,68,71,74,75,76,77,79,80,81,82,83,84,86,87,89,90,91},
	{4,5,6,8,10,15,23,26,27,28,29,30,32,33,34,35,40,41,44,45,47,49,51,52,55,60,62,63,65,67,68,71,74,75,79,81,82,83,86,87,89},
	{2,4,5,6,7,9,10,11,14,16,18,20,21,23,25,26,27,28,30,31,32,33,34,37,38,39,41,44,45,46,47,48,50,51,52,54,55,57,58,59,60,61,62,63,64,65,66,67,68,72,73,75,76,77,78,79,81,82,83,84,85,86,87,88,89,90,91},
	{3,4,6,7,8,9,10,12,13,14,15,16,17,18,19,20,21,23,24,26,27,28,29,31,32,33,34,35,38,39,42,43,44,47,48,50,53,54,55,61,64,65,66,67,68,69,71,72,75,76,81,82,83,85,86,87,88,89,91},
	{3,4,6,7,8,9,10,12,13,14,15,16,17,18,19,20,21,23,24,26,27,28,29,31,32,33,34,35,38,39,42,43,44,47,48,50,53,54,55,61,64,65,66,67,68,69,71,72,75,76,81,82,83,85,86,87,88,89,91},
	{3,4,5,6,7,8,9,10,12,14,15,16,18,19,23,25,26,27,28,29,30,31,32,33,34,35,36,37,38,40,41,42,43,44,45,47,48,49,50,51,52,53,54,55,57,59,60,62,63,65,66,67,68,71,74,75,76,79,81,82,83,84,86,87,89,90,91},
	{3,4,5,6,7,8,9,10,14,15,18,23,26,27,28,29,30,31,32,33,34,35,36,37,38,40,41,44,45,47,48,49,50,51,52,53,55,59,60,62,63,65,66,67,68,71,74,75,76,79,81,82,83,84,86,87,89,91},
	{4,5,6,8,10,15,23,26,27,28,29,30,32,33,34,35,40,41,44,45,47,49,51,52,55,60,62,63,65,67,68,71,74,75,79,81,82,83,86,87,89},
	{2,3,4,6,7,8,9,10,11,12,14,15,16,17,18,19,20,21,23,24,25,26,27,28,29,30,31,32,33,34,35,39,41,42,43,44,45,47,48,50,51,53,55,57,59,60,61,62,64,65,66,67,68,69,71,72,75,76,77,81,82,83,86,87,88,89,90,91},
	{3,7,10,14,15,17,19,20,21,24,26,32,33,34,35,39,53,55,61,64,69,72,82,83,87,88,89}];
